NAME: pr76.opt.tour
COMMENT: 
TYPE: TOUR
DIMENSION: 76
TOUR_SECTION
41
60
59
58
55
56
51
66
65
50
49
52
53
54
42
43
28
33
32
27
26
29
30
31
19
20
5
6
7
8
3
4
10
9
12
11
17
18
37
36
35
34
40
39
38
16
15
13
14
74
76
75
2
1
23
22
21
25
24
46
45
44
48
47
69
68
67
70
71
72
73
64
63
57
62
61
-1
EOF